p cnf 144 1
144 0
w 1 0.335686
w 2 1 0
w 2 -1 1
w 3 2 0.765753
w 3 -2 0.739345
w 4 3 0.918788
w 4 -3 0.970873
w 5 4 0.550194
w 5 -4 0.574103
w 6 5 0.837179
w 6 -5 0.40887
w 7 6 0
w 7 -6 1
w 8 7 0.174572
w 8 -7 0.911723
w 9 8 1
w 9 -8 0
w 10 9 0.746845
w 10 -9 0.366834
w 11 10 0.0910296
w 11 -10 0.744146
w 12 11 0.900095
w 12 -11 0.338617
w 13 1 0
w 13 -1 1
w 14 13 2 0
w 14 13 -2 1
w 14 -13 2 0
w 14 -13 -2 1
w 15 14 3 0.958061
w 15 14 -3 0.176862
w 15 -14 3 0.359002
w 15 -14 -3 0.532164
w 16 15 4 0.19618
w 16 15 -4 0.941034
w 16 -15 4 0.417047
w 16 -15 -4 0.0902091
w 17 16 5 0.591619
w 17 16 -5 0.00193193
w 17 -16 5 0.987007
w 17 -16 -5 0.428512
w 18 17 6 0.733852
w 18 17 -6 0.795346
w 18 -17 6 0.472417
w 18 -17 -6 0.824882
w 19 18 7 0.456507
w 19 18 -7 0.724977
w 19 -18 7 0.878108
w 19 -18 -7 0.776284
w 20 19 8 0.125951
w 20 19 -8 0.0810934
w 20 -19 8 0.739263
w 20 -19 -8 0.113138
w 21 20 9 0
w 21 20 -9 0
w 21 -20 9 0
w 21 -20 -9 1
w 22 21 10 0.432265
w 22 21 -10 0.103252
w 22 -21 10 0.544396
w 22 -21 -10 0.849313
w 23 22 11 0
w 23 22 -11 0
w 23 -22 11 1
w 23 -22 -11 1
w 24 23 12 0.00477169
w 24 23 -12 0.929536
w 24 -23 12 0.66479
w 24 -23 -12 0.477189
w 25 13 0.204281
w 25 -13 0.933696
w 26 25 14 1
w 26 25 -14 1
w 26 -25 14 0
w 26 -25 -14 1
w 27 26 15 0.0679003
w 27 26 -15 0.321478
w 27 -26 15 0.0552294
w 27 -26 -15 0.61597
w 28 27 16 1
w 28 27 -16 0
w 28 -27 16 0
w 28 -27 -16 0
w 29 28 17 0.540435
w 29 28 -17 0.777826
w 29 -28 17 0.819755
w 29 -28 -17 0.749112
w 30 29 18 0
w 30 29 -18 1
w 30 -29 18 0
w 30 -29 -18 0
w 31 30 19 0.752991
w 31 30 -19 0.497109
w 31 -30 19 0.628748
w 31 -30 -19 0.957273
w 32 31 20 1
w 32 31 -20 0
w 32 -31 20 0
w 32 -31 -20 1
w 33 32 21 1
w 33 32 -21 0
w 33 -32 21 1
w 33 -32 -21 1
w 34 33 22 1
w 34 33 -22 0
w 34 -33 22 0
w 34 -33 -22 1
w 35 34 23 0
w 35 34 -23 0
w 35 -34 23 0
w 35 -34 -23 1
w 36 35 24 1
w 36 35 -24 1
w 36 -35 24 0
w 36 -35 -24 1
w 37 25 0
w 37 -25 1
w 38 37 26 0
w 38 37 -26 0
w 38 -37 26 0
w 38 -37 -26 1
w 39 38 27 0.24656
w 39 38 -27 0.193508
w 39 -38 27 0.240541
w 39 -38 -27 0.494563
w 40 39 28 1
w 40 39 -28 1
w 40 -39 28 1
w 40 -39 -28 0
w 41 40 29 0.509566
w 41 40 -29 0.984401
w 41 -40 29 0.00763468
w 41 -40 -29 0.779554
w 42 41 30 1
w 42 41 -30 1
w 42 -41 30 1
w 42 -41 -30 0
w 43 42 31 0.923318
w 43 42 -31 0.102376
w 43 -42 31 0.0989986
w 43 -42 -31 0.990189
w 44 43 32 0
w 44 43 -32 0
w 44 -43 32 1
w 44 -43 -32 1
w 45 44 33 0
w 45 44 -33 0
w 45 -44 33 0
w 45 -44 -33 1
w 46 45 34 1
w 46 45 -34 0
w 46 -45 34 1
w 46 -45 -34 0
w 47 46 35 0.850771
w 47 46 -35 0.374671
w 47 -46 35 0.808389
w 47 -46 -35 0.630324
w 48 47 36 0.00569869
w 48 47 -36 0.49962
w 48 -47 36 0.588484
w 48 -47 -36 0.611441
w 49 37 1
w 49 -37 0
w 50 49 38 0.572806
w 50 49 -38 0.501991
w 50 -49 38 0.0658186
w 50 -49 -38 0.293725
w 51 50 39 0
w 51 50 -39 1
w 51 -50 39 0
w 51 -50 -39 0
w 52 51 40 1
w 52 51 -40 0
w 52 -51 40 1
w 52 -51 -40 1
w 53 52 41 1
w 53 52 -41 0
w 53 -52 41 0
w 53 -52 -41 0
w 54 53 42 1
w 54 53 -42 1
w 54 -53 42 1
w 54 -53 -42 0
w 55 54 43 0.204728
w 55 54 -43 0.305402
w 55 -54 43 0.558288
w 55 -54 -43 0.678536
w 56 55 44 0.272105
w 56 55 -44 0.251343
w 56 -55 44 0.319196
w 56 -55 -44 0.337923
w 57 56 45 0.506995
w 57 56 -45 0.962641
w 57 -56 45 0.612435
w 57 -56 -45 0.184362
w 58 57 46 0
w 58 57 -46 0
w 58 -57 46 0
w 58 -57 -46 1
w 59 58 47 0
w 59 58 -47 0
w 59 -58 47 1
w 59 -58 -47 0
w 60 59 48 1
w 60 59 -48 1
w 60 -59 48 0
w 60 -59 -48 0
w 61 49 0
w 61 -49 1
w 62 61 50 0.583366
w 62 61 -50 0.685036
w 62 -61 50 0.361816
w 62 -61 -50 0.400571
w 63 62 51 0.613159
w 63 62 -51 0.719767
w 63 -62 51 0.295064
w 63 -62 -51 0.158226
w 64 63 52 1
w 64 63 -52 0
w 64 -63 52 0
w 64 -63 -52 0
w 65 64 53 0
w 65 64 -53 0
w 65 -64 53 1
w 65 -64 -53 1
w 66 65 54 0.297601
w 66 65 -54 0.176269
w 66 -65 54 0.692673
w 66 -65 -54 0.536354
w 67 66 55 0.253718
w 67 66 -55 0.716256
w 67 -66 55 0.428264
w 67 -66 -55 0.531682
w 68 67 56 0.111543
w 68 67 -56 0.115048
w 68 -67 56 0.52804
w 68 -67 -56 0.473359
w 69 68 57 0.48518
w 69 68 -57 0.086518
w 69 -68 57 0.235385
w 69 -68 -57 0.780244
w 70 69 58 0
w 70 69 -58 0
w 70 -69 58 1
w 70 -69 -58 0
w 71 70 59 0
w 71 70 -59 0
w 71 -70 59 0
w 71 -70 -59 1
w 72 71 60 0
w 72 71 -60 1
w 72 -71 60 1
w 72 -71 -60 1
w 73 61 1
w 73 -61 0
w 74 73 62 1
w 74 73 -62 0
w 74 -73 62 0
w 74 -73 -62 1
w 75 74 63 1
w 75 74 -63 1
w 75 -74 63 0
w 75 -74 -63 0
w 76 75 64 0.796985
w 76 75 -64 0.811307
w 76 -75 64 0.824252
w 76 -75 -64 0.259132
w 77 76 65 0.839658
w 77 76 -65 0.132402
w 77 -76 65 0.53773
w 77 -76 -65 0.27268
w 78 77 66 1
w 78 77 -66 0
w 78 -77 66 0
w 78 -77 -66 0
w 79 78 67 0.892588
w 79 78 -67 0.598145
w 79 -78 67 0.278122
w 79 -78 -67 0.372411
w 80 79 68 0.452961
w 80 79 -68 0.280497
w 80 -79 68 0.92833
w 80 -79 -68 0.470804
w 81 80 69 0
w 81 80 -69 0
w 81 -80 69 1
w 81 -80 -69 0
w 82 81 70 1
w 82 81 -70 1
w 82 -81 70 0
w 82 -81 -70 0
w 83 82 71 0.708313
w 83 82 -71 0.0365334
w 83 -82 71 0.724431
w 83 -82 -71 0.246042
w 84 83 72 0
w 84 83 -72 1
w 84 -83 72 1
w 84 -83 -72 0
w 85 73 0.0260598
w 85 -73 0.98813
w 86 85 74 0
w 86 85 -74 0
w 86 -85 74 1
w 86 -85 -74 0
w 87 86 75 0.222276
w 87 86 -75 0.227947
w 87 -86 75 0.941166
w 87 -86 -75 0.196588
w 88 87 76 0
w 88 87 -76 1
w 88 -87 76 1
w 88 -87 -76 1
w 89 88 77 1
w 89 88 -77 1
w 89 -88 77 1
w 89 -88 -77 0
w 90 89 78 0
w 90 89 -78 0
w 90 -89 78 1
w 90 -89 -78 1
w 91 90 79 1
w 91 90 -79 1
w 91 -90 79 1
w 91 -90 -79 0
w 92 91 80 0
w 92 91 -80 1
w 92 -91 80 0
w 92 -91 -80 0
w 93 92 81 0
w 93 92 -81 1
w 93 -92 81 1
w 93 -92 -81 1
w 94 93 82 1
w 94 93 -82 0
w 94 -93 82 0
w 94 -93 -82 1
w 95 94 83 0.859843
w 95 94 -83 0.286314
w 95 -94 83 0.51467
w 95 -94 -83 0.719597
w 96 95 84 0.896524
w 96 95 -84 0.825393
w 96 -95 84 0.276161
w 96 -95 -84 0.0114444
w 97 85 1
w 97 -85 0
w 98 97 86 0
w 98 97 -86 1
w 98 -97 86 1
w 98 -97 -86 0
w 99 98 87 1
w 99 98 -87 0
w 99 -98 87 1
w 99 -98 -87 1
w 100 99 88 0
w 100 99 -88 1
w 100 -99 88 0
w 100 -99 -88 0
w 101 100 89 0
w 101 100 -89 0
w 101 -100 89 1
w 101 -100 -89 0
w 102 101 90 0
w 102 101 -90 0
w 102 -101 90 1
w 102 -101 -90 1
w 103 102 91 1
w 103 102 -91 1
w 103 -102 91 1
w 103 -102 -91 0
w 104 103 92 0.429764
w 104 103 -92 0.248645
w 104 -103 92 0.514943
w 104 -103 -92 0.850265
w 105 104 93 0.71556
w 105 104 -93 0.8299
w 105 -104 93 0.0361697
w 105 -104 -93 0.859614
w 106 105 94 0
w 106 105 -94 0
w 106 -105 94 1
w 106 -105 -94 0
w 107 106 95 0.177033
w 107 106 -95 0.346359
w 107 -106 95 0.706927
w 107 -106 -95 0.962251
w 108 107 96 0.172542
w 108 107 -96 0.26214
w 108 -107 96 0.665351
w 108 -107 -96 0.264787
w 109 97 1
w 109 -97 0
w 110 109 98 0.666409
w 110 109 -98 0.531708
w 110 -109 98 0.133811
w 110 -109 -98 0.0961733
w 111 110 99 0.648754
w 111 110 -99 0.946438
w 111 -110 99 0.602516
w 111 -110 -99 0.364315
w 112 111 100 0.638686
w 112 111 -100 0.223929
w 112 -111 100 0.786046
w 112 -111 -100 0.751626
w 113 112 101 0
w 113 112 -101 1
w 113 -112 101 0
w 113 -112 -101 1
w 114 113 102 1
w 114 113 -102 1
w 114 -113 102 0
w 114 -113 -102 0
w 115 114 103 0.402111
w 115 114 -103 0.963252
w 115 -114 103 0.788784
w 115 -114 -103 0.860663
w 116 115 104 0
w 116 115 -104 0
w 116 -115 104 1
w 116 -115 -104 0
w 117 116 105 0.78535
w 117 116 -105 0.204543
w 117 -116 105 0.569684
w 117 -116 -105 0.387867
w 118 117 106 0.346022
w 118 117 -106 0.0265524
w 118 -117 106 0.792786
w 118 -117 -106 0.132068
w 119 118 107 0.191766
w 119 118 -107 0.24897
w 119 -118 107 0.778865
w 119 -118 -107 0.49725
w 120 119 108 0.956585
w 120 119 -108 0.149094
w 120 -119 108 0.244953
w 120 -119 -108 0.096556
w 121 109 1
w 121 -109 0
w 122 121 110 1
w 122 121 -110 0
w 122 -121 110 1
w 122 -121 -110 1
w 123 122 111 0.888534
w 123 122 -111 0.535499
w 123 -122 111 0.509647
w 123 -122 -111 0.673884
w 124 123 112 0.0793307
w 124 123 -112 0.0617503
w 124 -123 112 0.308899
w 124 -123 -112 0.425352
w 125 124 113 0
w 125 124 -113 1
w 125 -124 113 1
w 125 -124 -113 0
w 126 125 114 0.645346
w 126 125 -114 0.790702
w 126 -125 114 0.699887
w 126 -125 -114 0.60193
w 127 126 115 0.94484
w 127 126 -115 0.698486
w 127 -126 115 0.386791
w 127 -126 -115 0.71379
w 128 127 116 0
w 128 127 -116 0
w 128 -127 116 1
w 128 -127 -116 1
w 129 128 117 1
w 129 128 -117 0
w 129 -128 117 0
w 129 -128 -117 1
w 130 129 118 0
w 130 129 -118 0
w 130 -129 118 1
w 130 -129 -118 0
w 131 130 119 1
w 131 130 -119 1
w 131 -130 119 0
w 131 -130 -119 0
w 132 131 120 0
w 132 131 -120 0
w 132 -131 120 0
w 132 -131 -120 1
w 133 121 0.961311
w 133 -121 0.465751
w 134 133 122 0
w 134 133 -122 0
w 134 -133 122 1
w 134 -133 -122 0
w 135 134 123 0
w 135 134 -123 1
w 135 -134 123 1
w 135 -134 -123 0
w 136 135 124 1
w 136 135 -124 1
w 136 -135 124 1
w 136 -135 -124 0
w 137 136 125 0.851485
w 137 136 -125 0.843417
w 137 -136 125 0.335592
w 137 -136 -125 0.788845
w 138 137 126 0.595117
w 138 137 -126 0.0196577
w 138 -137 126 0.679075
w 138 -137 -126 0.499987
w 139 138 127 1
w 139 138 -127 0
w 139 -138 127 0
w 139 -138 -127 0
w 140 139 128 0
w 140 139 -128 0
w 140 -139 128 0
w 140 -139 -128 1
w 141 140 129 0.321434
w 141 140 -129 0.998644
w 141 -140 129 0.975243
w 141 -140 -129 0.716252
w 142 141 130 1
w 142 141 -130 0
w 142 -141 130 1
w 142 -141 -130 0
w 143 142 131 1
w 143 142 -131 0
w 143 -142 131 1
w 143 -142 -131 0
w 144 143 132 1
w 144 143 -132 0
w 144 -143 132 1
w 144 -143 -132 0